Cost: 378
0-4-34-46-8-19-35-7-0
0-27-15-20-37-5-29-45-0
0-30-48-47-36-21-28-2-0
0-17-26-0
0-40-3-44-32-9-39-12-0
0-6-33-1-43-41-42-22-0
Cost: 378
0-30-48-47-36-21-28-2-0
0-12-39-9-32-44-3-40-0
0-7-35-19-8-46-34-4-0
0-6-33-1-43-41-42-22-0
0-17-26-0
0-45-29-5-37-20-15-27-0
Cost: 378
0-4-34-46-8-19-35-7-0
0-27-15-20-37-5-29-45-0
0-30-48-47-36-21-28-2-0
0-17-26-0
0-40-3-44-32-9-39-12-0
0-6-33-1-43-41-42-22-0
Cost: 378
0-27-15-20-37-5-29-45-0
0-12-39-9-32-44-3-40-0
0-4-34-46-8-19-35-7-0
0-17-26-0
0-6-33-1-43-41-42-22-0
0-2-28-21-36-47-48-30-0
Cost: 378
0-26-17-0
0-12-39-9-32-44-3-40-0
0-6-33-1-43-41-42-22-0
0-27-15-20-37-5-29-45-0
0-7-35-19-8-46-34-4-0
0-2-28-21-36-47-48-30-0
Cost: 378
0-22-42-41-43-1-33-6-0
0-4-34-46-8-19-35-7-0
0-40-3-44-32-9-39-12-0
0-45-29-5-37-20-15-27-0
0-30-48-47-36-21-28-2-0
0-26-17-0
Cost: 378
0-4-34-46-8-19-35-7-0
0-30-48-47-36-21-28-2-0
0-6-33-1-43-41-42-22-0
0-40-3-44-32-9-39-12-0
0-45-29-5-37-20-15-27-0
0-17-26-0
Cost: 378
0-4-34-46-8-19-35-7-0
0-30-48-47-36-21-28-2-0
0-6-33-1-43-41-42-22-0
0-40-3-44-32-9-39-12-0
0-45-29-5-37-20-15-27-0
0-17-26-0
Cost: 378
0-4-34-46-8-19-35-7-0
0-30-48-47-36-21-28-2-0
0-6-33-1-43-41-42-22-0
0-40-3-44-32-9-39-12-0
0-45-29-5-37-20-15-27-0
0-17-26-0
Cost: 378
0-26-17-0
0-6-33-1-43-41-42-22-0
0-27-15-20-37-5-29-45-0
0-30-48-47-36-21-28-2-0
0-40-3-44-32-9-39-12-0
0-4-34-46-8-19-35-7-0
Cost: 378
0-27-15-20-37-5-29-45-0
0-12-39-9-32-44-3-40-0
0-26-17-0
0-30-48-47-36-21-28-2-0
0-6-33-1-43-41-42-22-0
0-4-34-46-8-19-35-7-0
Cost: 378
0-7-35-19-8-46-34-4-0
0-17-26-0
0-6-33-1-43-41-42-22-0
0-40-3-44-32-9-39-12-0
0-45-29-5-37-20-15-27-0
0-2-28-21-36-47-48-30-0
Cost: 378
0-7-35-19-8-46-34-4-0
0-40-3-44-32-9-39-12-0
0-27-15-20-37-5-29-45-0
0-6-33-1-43-41-42-22-0
0-2-28-21-36-47-48-30-0
0-26-17-0
Cost: 378
0-26-17-0
0-22-42-41-43-1-33-6-0
0-7-35-19-8-46-34-4-0
0-12-39-9-32-44-3-40-0
0-30-48-47-36-21-28-2-0
0-27-15-20-37-5-29-45-0
Cost: 378
0-7-35-19-8-46-34-4-0
0-40-3-44-32-9-39-12-0
0-27-15-20-37-5-29-45-0
0-6-33-1-43-41-42-22-0
0-2-28-21-36-47-48-30-0
0-26-17-0
Cost: 378
0-7-35-19-8-46-34-4-0
0-40-3-44-32-9-39-12-0
0-27-15-20-37-5-29-45-0
0-6-33-1-43-41-42-22-0
0-2-28-21-36-47-48-30-0
0-26-17-0
Cost: 378
0-7-35-19-8-46-34-4-0
0-40-3-44-32-9-39-12-0
0-27-15-20-37-5-29-45-0
0-6-33-1-43-41-42-22-0
0-2-28-21-36-47-48-30-0
0-26-17-0
Cost: 378
0-40-3-44-32-9-39-12-0
0-26-17-0
0-6-33-1-43-41-42-22-0
0-27-15-20-37-5-29-45-0
0-2-28-21-36-47-48-30-0
0-7-35-19-8-46-34-4-0
Cost: 378
0-22-42-41-43-1-33-6-0
0-4-34-46-8-19-35-7-0
0-40-3-44-32-9-39-12-0
0-27-15-20-37-5-29-45-0
0-26-17-0
0-30-48-47-36-21-28-2-0
Cost: 378
0-22-42-41-43-1-33-6-0
0-4-34-46-8-19-35-7-0
0-40-3-44-32-9-39-12-0
0-27-15-20-37-5-29-45-0
0-26-17-0
0-30-48-47-36-21-28-2-0
Cost: 378
0-12-39-9-32-44-3-40-0
0-26-17-0
0-6-33-1-43-41-42-22-0
0-2-28-21-36-47-48-30-0
0-27-15-20-37-5-29-45-0
0-4-34-46-8-19-35-7-0
Cost: 378
0-12-39-9-32-44-3-40-0
0-26-17-0
0-6-33-1-43-41-42-22-0
0-2-28-21-36-47-48-30-0
0-27-15-20-37-5-29-45-0
0-4-34-46-8-19-35-7-0
Cost: 378
0-12-39-9-32-44-3-40-0
0-27-15-20-37-5-29-45-0
0-2-28-21-36-47-48-30-0
0-7-35-19-8-46-34-4-0
0-6-33-1-43-41-42-22-0
0-26-17-0
Cost: 378
0-12-39-9-32-44-3-40-0
0-26-17-0
0-6-33-1-43-41-42-22-0
0-2-28-21-36-47-48-30-0
0-27-15-20-37-5-29-45-0
0-4-34-46-8-19-35-7-0
Cost: 378
0-40-3-44-32-9-39-12-0
0-26-17-0
0-6-33-1-43-41-42-22-0
0-27-15-20-37-5-29-45-0
0-2-28-21-36-47-48-30-0
0-7-35-19-8-46-34-4-0
Cost: 378
0-22-42-41-43-1-33-6-0
0-4-34-46-8-19-35-7-0
0-40-3-44-32-9-39-12-0
0-27-15-20-37-5-29-45-0
0-26-17-0
0-30-48-47-36-21-28-2-0
Cost: 378
0-12-39-9-32-44-3-40-0
0-4-34-46-8-19-35-7-0
0-22-42-41-43-1-33-6-0
0-17-26-0
0-27-15-20-37-5-29-45-0
0-30-48-47-36-21-28-2-0
Cost: 378
0-17-26-0
0-40-3-44-32-9-39-12-0
0-27-15-20-37-5-29-45-0
0-7-35-19-8-46-34-4-0
0-30-48-47-36-21-28-2-0
0-6-33-1-43-41-42-22-0
Cost: 378
0-4-34-46-8-19-35-7-0
0-12-39-9-32-44-3-40-0
0-6-33-1-43-41-42-22-0
0-27-15-20-37-5-29-45-0
0-2-28-21-36-47-48-30-0
0-17-26-0
Cost: 378
0-22-42-41-43-1-33-6-0
0-45-29-5-37-20-15-27-0
0-4-34-46-8-19-35-7-0
0-2-28-21-36-47-48-30-0
0-12-39-9-32-44-3-40-0
0-17-26-0
Cost: 378
0-4-34-46-8-19-35-7-0
0-2-28-21-36-47-48-30-0
0-27-15-20-37-5-29-45-0
0-6-33-1-43-41-42-22-0
0-40-3-44-32-9-39-12-0
0-17-26-0
